c 
c MolecularSimulation 1.0.2
c Simulation written: Tue Aug 14 15:19:24 2012
c Test: Ogihara-Ray
c Input: ./data/testCNF/SWEEP_R10_K3_N20_M196_S001.cnf
c 
s UNSATISFIABLE
v 0
c algorithmType:  Ogihara-Ray
c algorithmTime:  0.014074
c solutionMemory: 0
c mixCount:       464
c extractCount:   588
c appendCount:    36
c splitCount:     18
c spliceCount:    0
c purifyCount:    214
c numVar:         20
c numClause:      196
c 
